p cnf 451 1529
c p weight -179 1 0
c p weight 179 -1 0
c p weight 183 6.12323399573676603586882014729198302312846062338790031898128063403419218957424163818359375E-17 0
c p weight -183 1 0
c p weight 184 1 0
c p weight -184 1 0
c p weight -181 1 0
c p weight 181 -1 0
c p weight -185 1 0
c p weight 185 -1 0
c p weight -187 1 0
c p weight 187 -1 0
c p weight -190 1 0
c p weight 190 -1 0
c p weight -193 1 0
c p weight 193 -1 0
c p weight -196 1 0
c p weight 196 -1 0
c p weight -199 1 0
c p weight 199 -1 0
c p weight -202 1 0
c p weight 202 -1 0
c p weight -205 1 0
c p weight 205 -1 0
c p weight -208 1 0
c p weight 208 -1 0
c p weight -211 1 0
c p weight 211 -1 0
c p weight -214 1 0
c p weight 214 -1 0
c p weight -217 1 0
c p weight 217 -1 0
c p weight -220 1 0
c p weight 220 -1 0
c p weight -223 1 0
c p weight 223 -1 0
c p weight -226 1 0
c p weight 226 -1 0
c p weight -229 1 0
c p weight 229 -1 0
c p weight -232 1 0
c p weight 232 -1 0
c p weight -235 1 0
c p weight 235 -1 0
c p weight -238 1 0
c p weight 238 -1 0
c p weight -241 1 0
c p weight 241 -1 0
c p weight -244 1 0
c p weight 244 -1 0
c p weight -247 1 0
c p weight 247 -1 0
c p weight -250 1 0
c p weight 250 -1 0
c p weight -253 1 0
c p weight 253 -1 0
c p weight -256 1 0
c p weight 256 -1 0
c p weight -259 1 0
c p weight 259 -1 0
c p weight -262 1 0
c p weight 262 -1 0
c p weight -265 1 0
c p weight 265 -1 0
c p weight -268 1 0
c p weight 268 -1 0
c p weight -271 1 0
c p weight 271 -1 0
c p weight -274 1 0
c p weight 274 -1 0
c p weight -277 1 0
c p weight 277 -1 0
c p weight -280 1 0
c p weight 280 -1 0
c p weight -283 1 0
c p weight 283 -1 0
c p weight -286 1 0
c p weight 286 -1 0
c p weight -289 1 0
c p weight 289 -1 0
c p weight -292 1 0
c p weight 292 -1 0
c p weight -295 1 0
c p weight 295 -1 0
c p weight -298 1 0
c p weight 298 -1 0
c p weight -301 1 0
c p weight 301 -1 0
c p weight -304 1 0
c p weight 304 -1 0
c p weight -307 1 0
c p weight 307 -1 0
c p weight -310 1 0
c p weight 310 -1 0
c p weight -313 1 0
c p weight 313 -1 0
c p weight -316 1 0
c p weight 316 -1 0
c p weight -319 1 0
c p weight 319 -1 0
c p weight -322 1 0
c p weight 322 -1 0
c p weight -325 1 0
c p weight 325 -1 0
c p weight -328 1 0
c p weight 328 -1 0
c p weight -331 1 0
c p weight 331 -1 0
c p weight -334 1 0
c p weight 334 -1 0
c p weight -337 1 0
c p weight 337 -1 0
c p weight -340 1 0
c p weight 340 -1 0
c p weight -343 1 0
c p weight 343 -1 0
c p weight -346 1 0
c p weight 346 -1 0
c p weight -349 1 0
c p weight 349 -1 0
c p weight -352 1 0
c p weight 352 -1 0
c p weight -355 1 0
c p weight 355 -1 0
c p weight -358 1 0
c p weight 358 -1 0
c p weight -361 1 0
c p weight 361 -1 0
c p weight -364 1 0
c p weight 364 -1 0
c p weight -367 1 0
c p weight 367 -1 0
c p weight -370 1 0
c p weight 370 -1 0
c p weight -373 1 0
c p weight 373 -1 0
c p weight -376 1 0
c p weight 376 -1 0
c p weight -379 1 0
c p weight 379 -1 0
c p weight -382 1 0
c p weight 382 -1 0
c p weight -385 1 0
c p weight 385 -1 0
c p weight -388 1 0
c p weight 388 -1 0
c p weight -391 1 0
c p weight 391 -1 0
c p weight -394 1 0
c p weight 394 -1 0
c p weight -397 1 0
c p weight 397 -1 0
c p weight -400 1 0
c p weight 400 -1 0
c p weight -403 1 0
c p weight 403 -1 0
c p weight -406 1 0
c p weight 406 -1 0
c p weight -409 1 0
c p weight 409 -1 0
c p weight -412 1 0
c p weight 412 -1 0
c p weight -415 1 0
c p weight 415 -1 0
c p weight -418 1 0
c p weight 418 -1 0
c p weight -421 1 0
c p weight 421 -1 0
c p weight -424 1 0
c p weight 424 -1 0
c p weight -427 1 0
c p weight 427 -1 0
c p weight -430 1 0
c p weight 430 -1 0
c p weight -433 1 0
c p weight 433 -1 0
c p weight -436 1 0
c p weight 436 -1 0
c p weight -439 1 0
c p weight 439 -1 0
c p weight -442 1 0
c p weight 442 -1 0
c p weight -445 1 0
c p weight 445 -1 0
c p weight -448 1 0
c p weight 448 -1 0
c p weight 451 0.5 0
c p weight -451 1 0
451 0
-177 0
-175 0
-173 0
-171 0
-169 0
-167 0
-165 0
-163 0
-161 0
-159 0
-157 0
-155 0
-153 0
-151 0
-149 0
-147 0
-145 0
-143 0
-141 0
-139 0
-137 0
-135 0
-133 0
-131 0
-129 0
-127 0
-125 0
-123 0
-121 0
-119 0
-117 0
-115 0
-113 0
-111 0
-109 0
-107 0
-105 0
-103 0
-101 0
-99 0
-97 0
-95 0
-93 0
-91 0
-89 0
-87 0
-85 0
-83 0
-81 0
-79 0
-77 0
-75 0
-73 0
-71 0
-69 0
-67 0
-65 0
-63 0
-61 0
-59 0
-57 0
-55 0
-53 0
-51 0
-49 0
-47 0
-45 0
-43 0
-41 0
-39 0
-37 0
-35 0
-33 0
-31 0
-29 0
-27 0
-25 0
-23 0
-21 0
-19 0
-17 0
-15 0
-13 0
-11 0
-9 0
-7 0
-5 0
-3 0
-1 0
-179 177 0
-179 178 0
179 -177 -178 0
180 177 -178 0
180 -177 178 0
-180 177 178 0
-180 -177 -178 0
-181 182 0
-181 180 0
-181 -177 0
181 -182 177 -180 0
182 -177 180 0
-182 177 180 0
-183 180 0
182 -183 -177 0
-182 -183 177 0
182 183 177 -180 0
-182 183 -177 -180 0
-184 180 0
182 -184 177 0
-182 -184 -177 0
182 184 -177 -180 0
-182 184 177 -180 0
-185 182 0
-185 180 0
185 -182 -180 0
186 182 -180 0
186 -182 180 0
-186 182 180 0
-186 -182 -180 0
-187 182 0
-187 176 0
-187 175 -186 0
-187 -175 186 0
187 -182 175 186 -176 0
187 -182 -175 -186 -176 0
189 182 -175 0
189 -182 175 0
-189 182 175 0
-189 -182 -175 0
188 186 -176 0
188 -186 176 0
-188 186 176 0
-188 -186 -176 0
-190 189 0
-190 174 0
-190 173 -176 0
-190 -173 176 0
190 -189 173 176 -174 0
190 -189 -173 -176 -174 0
192 189 -173 0
192 -189 173 0
-192 189 173 0
-192 -189 -173 0
191 176 -174 0
191 -176 174 0
-191 176 174 0
-191 -176 -174 0
-193 192 0
-193 172 0
-193 171 -174 0
-193 -171 174 0
193 -192 171 174 -172 0
193 -192 -171 -174 -172 0
195 192 -171 0
195 -192 171 0
-195 192 171 0
-195 -192 -171 0
194 174 -172 0
194 -174 172 0
-194 174 172 0
-194 -174 -172 0
-196 195 0
-196 170 0
-196 169 -172 0
-196 -169 172 0
196 -195 169 172 -170 0
196 -195 -169 -172 -170 0
198 195 -169 0
198 -195 169 0
-198 195 169 0
-198 -195 -169 0
197 172 -170 0
197 -172 170 0
-197 172 170 0
-197 -172 -170 0
-199 198 0
-199 168 0
-199 167 -170 0
-199 -167 170 0
199 -198 167 170 -168 0
199 -198 -167 -170 -168 0
201 198 -167 0
201 -198 167 0
-201 198 167 0
-201 -198 -167 0
200 170 -168 0
200 -170 168 0
-200 170 168 0
-200 -170 -168 0
-202 201 0
-202 166 0
-202 165 -168 0
-202 -165 168 0
202 -201 165 168 -166 0
202 -201 -165 -168 -166 0
204 201 -165 0
204 -201 165 0
-204 201 165 0
-204 -201 -165 0
203 168 -166 0
203 -168 166 0
-203 168 166 0
-203 -168 -166 0
-205 204 0
-205 164 0
-205 163 -166 0
-205 -163 166 0
205 -204 163 166 -164 0
205 -204 -163 -166 -164 0
207 204 -163 0
207 -204 163 0
-207 204 163 0
-207 -204 -163 0
206 166 -164 0
206 -166 164 0
-206 166 164 0
-206 -166 -164 0
-208 207 0
-208 162 0
-208 161 -164 0
-208 -161 164 0
208 -207 161 164 -162 0
208 -207 -161 -164 -162 0
210 207 -161 0
210 -207 161 0
-210 207 161 0
-210 -207 -161 0
209 164 -162 0
209 -164 162 0
-209 164 162 0
-209 -164 -162 0
-211 210 0
-211 160 0
-211 159 -162 0
-211 -159 162 0
211 -210 159 162 -160 0
211 -210 -159 -162 -160 0
213 210 -159 0
213 -210 159 0
-213 210 159 0
-213 -210 -159 0
212 162 -160 0
212 -162 160 0
-212 162 160 0
-212 -162 -160 0
-214 213 0
-214 158 0
-214 157 -160 0
-214 -157 160 0
214 -213 157 160 -158 0
214 -213 -157 -160 -158 0
216 213 -157 0
216 -213 157 0
-216 213 157 0
-216 -213 -157 0
215 160 -158 0
215 -160 158 0
-215 160 158 0
-215 -160 -158 0
-217 216 0
-217 156 0
-217 155 -158 0
-217 -155 158 0
217 -216 155 158 -156 0
217 -216 -155 -158 -156 0
219 216 -155 0
219 -216 155 0
-219 216 155 0
-219 -216 -155 0
218 158 -156 0
218 -158 156 0
-218 158 156 0
-218 -158 -156 0
-220 219 0
-220 154 0
-220 153 -156 0
-220 -153 156 0
220 -219 153 156 -154 0
220 -219 -153 -156 -154 0
222 219 -153 0
222 -219 153 0
-222 219 153 0
-222 -219 -153 0
221 156 -154 0
221 -156 154 0
-221 156 154 0
-221 -156 -154 0
-223 222 0
-223 152 0
-223 151 -154 0
-223 -151 154 0
223 -222 151 154 -152 0
223 -222 -151 -154 -152 0
225 222 -151 0
225 -222 151 0
-225 222 151 0
-225 -222 -151 0
224 154 -152 0
224 -154 152 0
-224 154 152 0
-224 -154 -152 0
-226 225 0
-226 150 0
-226 149 -152 0
-226 -149 152 0
226 -225 149 152 -150 0
226 -225 -149 -152 -150 0
228 225 -149 0
228 -225 149 0
-228 225 149 0
-228 -225 -149 0
227 152 -150 0
227 -152 150 0
-227 152 150 0
-227 -152 -150 0
-229 228 0
-229 148 0
-229 147 -150 0
-229 -147 150 0
229 -228 147 150 -148 0
229 -228 -147 -150 -148 0
231 228 -147 0
231 -228 147 0
-231 228 147 0
-231 -228 -147 0
230 150 -148 0
230 -150 148 0
-230 150 148 0
-230 -150 -148 0
-232 231 0
-232 146 0
-232 145 -148 0
-232 -145 148 0
232 -231 145 148 -146 0
232 -231 -145 -148 -146 0
234 231 -145 0
234 -231 145 0
-234 231 145 0
-234 -231 -145 0
233 148 -146 0
233 -148 146 0
-233 148 146 0
-233 -148 -146 0
-235 234 0
-235 144 0
-235 143 -146 0
-235 -143 146 0
235 -234 143 146 -144 0
235 -234 -143 -146 -144 0
237 234 -143 0
237 -234 143 0
-237 234 143 0
-237 -234 -143 0
236 146 -144 0
236 -146 144 0
-236 146 144 0
-236 -146 -144 0
-238 237 0
-238 142 0
-238 141 -144 0
-238 -141 144 0
238 -237 141 144 -142 0
238 -237 -141 -144 -142 0
240 237 -141 0
240 -237 141 0
-240 237 141 0
-240 -237 -141 0
239 144 -142 0
239 -144 142 0
-239 144 142 0
-239 -144 -142 0
-241 240 0
-241 140 0
-241 139 -142 0
-241 -139 142 0
241 -240 139 142 -140 0
241 -240 -139 -142 -140 0
243 240 -139 0
243 -240 139 0
-243 240 139 0
-243 -240 -139 0
242 142 -140 0
242 -142 140 0
-242 142 140 0
-242 -142 -140 0
-244 243 0
-244 138 0
-244 137 -140 0
-244 -137 140 0
244 -243 137 140 -138 0
244 -243 -137 -140 -138 0
246 243 -137 0
246 -243 137 0
-246 243 137 0
-246 -243 -137 0
245 140 -138 0
245 -140 138 0
-245 140 138 0
-245 -140 -138 0
-247 246 0
-247 136 0
-247 135 -138 0
-247 -135 138 0
247 -246 135 138 -136 0
247 -246 -135 -138 -136 0
249 246 -135 0
249 -246 135 0
-249 246 135 0
-249 -246 -135 0
248 138 -136 0
248 -138 136 0
-248 138 136 0
-248 -138 -136 0
-250 249 0
-250 134 0
-250 133 -136 0
-250 -133 136 0
250 -249 133 136 -134 0
250 -249 -133 -136 -134 0
252 249 -133 0
252 -249 133 0
-252 249 133 0
-252 -249 -133 0
251 136 -134 0
251 -136 134 0
-251 136 134 0
-251 -136 -134 0
-253 252 0
-253 132 0
-253 131 -134 0
-253 -131 134 0
253 -252 131 134 -132 0
253 -252 -131 -134 -132 0
255 252 -131 0
255 -252 131 0
-255 252 131 0
-255 -252 -131 0
254 134 -132 0
254 -134 132 0
-254 134 132 0
-254 -134 -132 0
-256 255 0
-256 130 0
-256 129 -132 0
-256 -129 132 0
256 -255 129 132 -130 0
256 -255 -129 -132 -130 0
258 255 -129 0
258 -255 129 0
-258 255 129 0
-258 -255 -129 0
257 132 -130 0
257 -132 130 0
-257 132 130 0
-257 -132 -130 0
-259 258 0
-259 128 0
-259 127 -130 0
-259 -127 130 0
259 -258 127 130 -128 0
259 -258 -127 -130 -128 0
261 258 -127 0
261 -258 127 0
-261 258 127 0
-261 -258 -127 0
260 130 -128 0
260 -130 128 0
-260 130 128 0
-260 -130 -128 0
-262 261 0
-262 126 0
-262 125 -128 0
-262 -125 128 0
262 -261 125 128 -126 0
262 -261 -125 -128 -126 0
264 261 -125 0
264 -261 125 0
-264 261 125 0
-264 -261 -125 0
263 128 -126 0
263 -128 126 0
-263 128 126 0
-263 -128 -126 0
-265 264 0
-265 124 0
-265 123 -126 0
-265 -123 126 0
265 -264 123 126 -124 0
265 -264 -123 -126 -124 0
267 264 -123 0
267 -264 123 0
-267 264 123 0
-267 -264 -123 0
266 126 -124 0
266 -126 124 0
-266 126 124 0
-266 -126 -124 0
-268 267 0
-268 122 0
-268 121 -124 0
-268 -121 124 0
268 -267 121 124 -122 0
268 -267 -121 -124 -122 0
270 267 -121 0
270 -267 121 0
-270 267 121 0
-270 -267 -121 0
269 124 -122 0
269 -124 122 0
-269 124 122 0
-269 -124 -122 0
-271 270 0
-271 120 0
-271 119 -122 0
-271 -119 122 0
271 -270 119 122 -120 0
271 -270 -119 -122 -120 0
273 270 -119 0
273 -270 119 0
-273 270 119 0
-273 -270 -119 0
272 122 -120 0
272 -122 120 0
-272 122 120 0
-272 -122 -120 0
-274 273 0
-274 118 0
-274 117 -120 0
-274 -117 120 0
274 -273 117 120 -118 0
274 -273 -117 -120 -118 0
276 273 -117 0
276 -273 117 0
-276 273 117 0
-276 -273 -117 0
275 120 -118 0
275 -120 118 0
-275 120 118 0
-275 -120 -118 0
-277 276 0
-277 116 0
-277 115 -118 0
-277 -115 118 0
277 -276 115 118 -116 0
277 -276 -115 -118 -116 0
279 276 -115 0
279 -276 115 0
-279 276 115 0
-279 -276 -115 0
278 118 -116 0
278 -118 116 0
-278 118 116 0
-278 -118 -116 0
-280 279 0
-280 114 0
-280 113 -116 0
-280 -113 116 0
280 -279 113 116 -114 0
280 -279 -113 -116 -114 0
282 279 -113 0
282 -279 113 0
-282 279 113 0
-282 -279 -113 0
281 116 -114 0
281 -116 114 0
-281 116 114 0
-281 -116 -114 0
-283 282 0
-283 112 0
-283 111 -114 0
-283 -111 114 0
283 -282 111 114 -112 0
283 -282 -111 -114 -112 0
285 282 -111 0
285 -282 111 0
-285 282 111 0
-285 -282 -111 0
284 114 -112 0
284 -114 112 0
-284 114 112 0
-284 -114 -112 0
-286 285 0
-286 110 0
-286 109 -112 0
-286 -109 112 0
286 -285 109 112 -110 0
286 -285 -109 -112 -110 0
288 285 -109 0
288 -285 109 0
-288 285 109 0
-288 -285 -109 0
287 112 -110 0
287 -112 110 0
-287 112 110 0
-287 -112 -110 0
-289 288 0
-289 108 0
-289 107 -110 0
-289 -107 110 0
289 -288 107 110 -108 0
289 -288 -107 -110 -108 0
291 288 -107 0
291 -288 107 0
-291 288 107 0
-291 -288 -107 0
290 110 -108 0
290 -110 108 0
-290 110 108 0
-290 -110 -108 0
-292 291 0
-292 106 0
-292 105 -108 0
-292 -105 108 0
292 -291 105 108 -106 0
292 -291 -105 -108 -106 0
294 291 -105 0
294 -291 105 0
-294 291 105 0
-294 -291 -105 0
293 108 -106 0
293 -108 106 0
-293 108 106 0
-293 -108 -106 0
-295 294 0
-295 104 0
-295 103 -106 0
-295 -103 106 0
295 -294 103 106 -104 0
295 -294 -103 -106 -104 0
297 294 -103 0
297 -294 103 0
-297 294 103 0
-297 -294 -103 0
296 106 -104 0
296 -106 104 0
-296 106 104 0
-296 -106 -104 0
-298 297 0
-298 102 0
-298 101 -104 0
-298 -101 104 0
298 -297 101 104 -102 0
298 -297 -101 -104 -102 0
300 297 -101 0
300 -297 101 0
-300 297 101 0
-300 -297 -101 0
299 104 -102 0
299 -104 102 0
-299 104 102 0
-299 -104 -102 0
-301 300 0
-301 100 0
-301 99 -102 0
-301 -99 102 0
301 -300 99 102 -100 0
301 -300 -99 -102 -100 0
303 300 -99 0
303 -300 99 0
-303 300 99 0
-303 -300 -99 0
302 102 -100 0
302 -102 100 0
-302 102 100 0
-302 -102 -100 0
-304 303 0
-304 98 0
-304 97 -100 0
-304 -97 100 0
304 -303 97 100 -98 0
304 -303 -97 -100 -98 0
306 303 -97 0
306 -303 97 0
-306 303 97 0
-306 -303 -97 0
305 100 -98 0
305 -100 98 0
-305 100 98 0
-305 -100 -98 0
-307 306 0
-307 96 0
-307 95 -98 0
-307 -95 98 0
307 -306 95 98 -96 0
307 -306 -95 -98 -96 0
309 306 -95 0
309 -306 95 0
-309 306 95 0
-309 -306 -95 0
308 98 -96 0
308 -98 96 0
-308 98 96 0
-308 -98 -96 0
-310 309 0
-310 94 0
-310 93 -96 0
-310 -93 96 0
310 -309 93 96 -94 0
310 -309 -93 -96 -94 0
312 309 -93 0
312 -309 93 0
-312 309 93 0
-312 -309 -93 0
311 96 -94 0
311 -96 94 0
-311 96 94 0
-311 -96 -94 0
-313 312 0
-313 92 0
-313 91 -94 0
-313 -91 94 0
313 -312 91 94 -92 0
313 -312 -91 -94 -92 0
315 312 -91 0
315 -312 91 0
-315 312 91 0
-315 -312 -91 0
314 94 -92 0
314 -94 92 0
-314 94 92 0
-314 -94 -92 0
-316 315 0
-316 90 0
-316 89 -92 0
-316 -89 92 0
316 -315 89 92 -90 0
316 -315 -89 -92 -90 0
318 315 -89 0
318 -315 89 0
-318 315 89 0
-318 -315 -89 0
317 92 -90 0
317 -92 90 0
-317 92 90 0
-317 -92 -90 0
-319 318 0
-319 88 0
-319 87 -90 0
-319 -87 90 0
319 -318 87 90 -88 0
319 -318 -87 -90 -88 0
321 318 -87 0
321 -318 87 0
-321 318 87 0
-321 -318 -87 0
320 90 -88 0
320 -90 88 0
-320 90 88 0
-320 -90 -88 0
-322 321 0
-322 86 0
-322 85 -88 0
-322 -85 88 0
322 -321 85 88 -86 0
322 -321 -85 -88 -86 0
324 321 -85 0
324 -321 85 0
-324 321 85 0
-324 -321 -85 0
323 88 -86 0
323 -88 86 0
-323 88 86 0
-323 -88 -86 0
-325 324 0
-325 84 0
-325 83 -86 0
-325 -83 86 0
325 -324 83 86 -84 0
325 -324 -83 -86 -84 0
327 324 -83 0
327 -324 83 0
-327 324 83 0
-327 -324 -83 0
326 86 -84 0
326 -86 84 0
-326 86 84 0
-326 -86 -84 0
-328 327 0
-328 82 0
-328 81 -84 0
-328 -81 84 0
328 -327 81 84 -82 0
328 -327 -81 -84 -82 0
330 327 -81 0
330 -327 81 0
-330 327 81 0
-330 -327 -81 0
329 84 -82 0
329 -84 82 0
-329 84 82 0
-329 -84 -82 0
-331 330 0
-331 80 0
-331 79 -82 0
-331 -79 82 0
331 -330 79 82 -80 0
331 -330 -79 -82 -80 0
333 330 -79 0
333 -330 79 0
-333 330 79 0
-333 -330 -79 0
332 82 -80 0
332 -82 80 0
-332 82 80 0
-332 -82 -80 0
-334 333 0
-334 78 0
-334 77 -80 0
-334 -77 80 0
334 -333 77 80 -78 0
334 -333 -77 -80 -78 0
336 333 -77 0
336 -333 77 0
-336 333 77 0
-336 -333 -77 0
335 80 -78 0
335 -80 78 0
-335 80 78 0
-335 -80 -78 0
-337 336 0
-337 76 0
-337 75 -78 0
-337 -75 78 0
337 -336 75 78 -76 0
337 -336 -75 -78 -76 0
339 336 -75 0
339 -336 75 0
-339 336 75 0
-339 -336 -75 0
338 78 -76 0
338 -78 76 0
-338 78 76 0
-338 -78 -76 0
-340 339 0
-340 74 0
-340 73 -76 0
-340 -73 76 0
340 -339 73 76 -74 0
340 -339 -73 -76 -74 0
342 339 -73 0
342 -339 73 0
-342 339 73 0
-342 -339 -73 0
341 76 -74 0
341 -76 74 0
-341 76 74 0
-341 -76 -74 0
-343 342 0
-343 72 0
-343 71 -74 0
-343 -71 74 0
343 -342 71 74 -72 0
343 -342 -71 -74 -72 0
345 342 -71 0
345 -342 71 0
-345 342 71 0
-345 -342 -71 0
344 74 -72 0
344 -74 72 0
-344 74 72 0
-344 -74 -72 0
-346 345 0
-346 70 0
-346 69 -72 0
-346 -69 72 0
346 -345 69 72 -70 0
346 -345 -69 -72 -70 0
348 345 -69 0
348 -345 69 0
-348 345 69 0
-348 -345 -69 0
347 72 -70 0
347 -72 70 0
-347 72 70 0
-347 -72 -70 0
-349 348 0
-349 68 0
-349 67 -70 0
-349 -67 70 0
349 -348 67 70 -68 0
349 -348 -67 -70 -68 0
351 348 -67 0
351 -348 67 0
-351 348 67 0
-351 -348 -67 0
350 70 -68 0
350 -70 68 0
-350 70 68 0
-350 -70 -68 0
-352 351 0
-352 66 0
-352 65 -68 0
-352 -65 68 0
352 -351 65 68 -66 0
352 -351 -65 -68 -66 0
354 351 -65 0
354 -351 65 0
-354 351 65 0
-354 -351 -65 0
353 68 -66 0
353 -68 66 0
-353 68 66 0
-353 -68 -66 0
-355 354 0
-355 64 0
-355 63 -66 0
-355 -63 66 0
355 -354 63 66 -64 0
355 -354 -63 -66 -64 0
357 354 -63 0
357 -354 63 0
-357 354 63 0
-357 -354 -63 0
356 66 -64 0
356 -66 64 0
-356 66 64 0
-356 -66 -64 0
-358 357 0
-358 62 0
-358 61 -64 0
-358 -61 64 0
358 -357 61 64 -62 0
358 -357 -61 -64 -62 0
360 357 -61 0
360 -357 61 0
-360 357 61 0
-360 -357 -61 0
359 64 -62 0
359 -64 62 0
-359 64 62 0
-359 -64 -62 0
-361 360 0
-361 60 0
-361 59 -62 0
-361 -59 62 0
361 -360 59 62 -60 0
361 -360 -59 -62 -60 0
363 360 -59 0
363 -360 59 0
-363 360 59 0
-363 -360 -59 0
362 62 -60 0
362 -62 60 0
-362 62 60 0
-362 -62 -60 0
-364 363 0
-364 58 0
-364 57 -60 0
-364 -57 60 0
364 -363 57 60 -58 0
364 -363 -57 -60 -58 0
366 363 -57 0
366 -363 57 0
-366 363 57 0
-366 -363 -57 0
365 60 -58 0
365 -60 58 0
-365 60 58 0
-365 -60 -58 0
-367 366 0
-367 56 0
-367 55 -58 0
-367 -55 58 0
367 -366 55 58 -56 0
367 -366 -55 -58 -56 0
369 366 -55 0
369 -366 55 0
-369 366 55 0
-369 -366 -55 0
368 58 -56 0
368 -58 56 0
-368 58 56 0
-368 -58 -56 0
-370 369 0
-370 54 0
-370 53 -56 0
-370 -53 56 0
370 -369 53 56 -54 0
370 -369 -53 -56 -54 0
372 369 -53 0
372 -369 53 0
-372 369 53 0
-372 -369 -53 0
371 56 -54 0
371 -56 54 0
-371 56 54 0
-371 -56 -54 0
-373 372 0
-373 52 0
-373 51 -54 0
-373 -51 54 0
373 -372 51 54 -52 0
373 -372 -51 -54 -52 0
375 372 -51 0
375 -372 51 0
-375 372 51 0
-375 -372 -51 0
374 54 -52 0
374 -54 52 0
-374 54 52 0
-374 -54 -52 0
-376 375 0
-376 50 0
-376 49 -52 0
-376 -49 52 0
376 -375 49 52 -50 0
376 -375 -49 -52 -50 0
378 375 -49 0
378 -375 49 0
-378 375 49 0
-378 -375 -49 0
377 52 -50 0
377 -52 50 0
-377 52 50 0
-377 -52 -50 0
-379 378 0
-379 48 0
-379 47 -50 0
-379 -47 50 0
379 -378 47 50 -48 0
379 -378 -47 -50 -48 0
381 378 -47 0
381 -378 47 0
-381 378 47 0
-381 -378 -47 0
380 50 -48 0
380 -50 48 0
-380 50 48 0
-380 -50 -48 0
-382 381 0
-382 46 0
-382 45 -48 0
-382 -45 48 0
382 -381 45 48 -46 0
382 -381 -45 -48 -46 0
384 381 -45 0
384 -381 45 0
-384 381 45 0
-384 -381 -45 0
383 48 -46 0
383 -48 46 0
-383 48 46 0
-383 -48 -46 0
-385 384 0
-385 44 0
-385 43 -46 0
-385 -43 46 0
385 -384 43 46 -44 0
385 -384 -43 -46 -44 0
387 384 -43 0
387 -384 43 0
-387 384 43 0
-387 -384 -43 0
386 46 -44 0
386 -46 44 0
-386 46 44 0
-386 -46 -44 0
-388 387 0
-388 42 0
-388 41 -44 0
-388 -41 44 0
388 -387 41 44 -42 0
388 -387 -41 -44 -42 0
390 387 -41 0
390 -387 41 0
-390 387 41 0
-390 -387 -41 0
389 44 -42 0
389 -44 42 0
-389 44 42 0
-389 -44 -42 0
-391 390 0
-391 40 0
-391 39 -42 0
-391 -39 42 0
391 -390 39 42 -40 0
391 -390 -39 -42 -40 0
393 390 -39 0
393 -390 39 0
-393 390 39 0
-393 -390 -39 0
392 42 -40 0
392 -42 40 0
-392 42 40 0
-392 -42 -40 0
-394 393 0
-394 38 0
-394 37 -40 0
-394 -37 40 0
394 -393 37 40 -38 0
394 -393 -37 -40 -38 0
396 393 -37 0
396 -393 37 0
-396 393 37 0
-396 -393 -37 0
395 40 -38 0
395 -40 38 0
-395 40 38 0
-395 -40 -38 0
-397 396 0
-397 36 0
-397 35 -38 0
-397 -35 38 0
397 -396 35 38 -36 0
397 -396 -35 -38 -36 0
399 396 -35 0
399 -396 35 0
-399 396 35 0
-399 -396 -35 0
398 38 -36 0
398 -38 36 0
-398 38 36 0
-398 -38 -36 0
-400 399 0
-400 34 0
-400 33 -36 0
-400 -33 36 0
400 -399 33 36 -34 0
400 -399 -33 -36 -34 0
402 399 -33 0
402 -399 33 0
-402 399 33 0
-402 -399 -33 0
401 36 -34 0
401 -36 34 0
-401 36 34 0
-401 -36 -34 0
-403 402 0
-403 32 0
-403 31 -34 0
-403 -31 34 0
403 -402 31 34 -32 0
403 -402 -31 -34 -32 0
405 402 -31 0
405 -402 31 0
-405 402 31 0
-405 -402 -31 0
404 34 -32 0
404 -34 32 0
-404 34 32 0
-404 -34 -32 0
-406 405 0
-406 30 0
-406 29 -32 0
-406 -29 32 0
406 -405 29 32 -30 0
406 -405 -29 -32 -30 0
408 405 -29 0
408 -405 29 0
-408 405 29 0
-408 -405 -29 0
407 32 -30 0
407 -32 30 0
-407 32 30 0
-407 -32 -30 0
-409 408 0
-409 28 0
-409 27 -30 0
-409 -27 30 0
409 -408 27 30 -28 0
409 -408 -27 -30 -28 0
411 408 -27 0
411 -408 27 0
-411 408 27 0
-411 -408 -27 0
410 30 -28 0
410 -30 28 0
-410 30 28 0
-410 -30 -28 0
-412 411 0
-412 26 0
-412 25 -28 0
-412 -25 28 0
412 -411 25 28 -26 0
412 -411 -25 -28 -26 0
414 411 -25 0
414 -411 25 0
-414 411 25 0
-414 -411 -25 0
413 28 -26 0
413 -28 26 0
-413 28 26 0
-413 -28 -26 0
-415 414 0
-415 24 0
-415 23 -26 0
-415 -23 26 0
415 -414 23 26 -24 0
415 -414 -23 -26 -24 0
417 414 -23 0
417 -414 23 0
-417 414 23 0
-417 -414 -23 0
416 26 -24 0
416 -26 24 0
-416 26 24 0
-416 -26 -24 0
-418 417 0
-418 22 0
-418 21 -24 0
-418 -21 24 0
418 -417 21 24 -22 0
418 -417 -21 -24 -22 0
420 417 -21 0
420 -417 21 0
-420 417 21 0
-420 -417 -21 0
419 24 -22 0
419 -24 22 0
-419 24 22 0
-419 -24 -22 0
-421 420 0
-421 20 0
-421 19 -22 0
-421 -19 22 0
421 -420 19 22 -20 0
421 -420 -19 -22 -20 0
423 420 -19 0
423 -420 19 0
-423 420 19 0
-423 -420 -19 0
422 22 -20 0
422 -22 20 0
-422 22 20 0
-422 -22 -20 0
-424 423 0
-424 18 0
-424 17 -20 0
-424 -17 20 0
424 -423 17 20 -18 0
424 -423 -17 -20 -18 0
426 423 -17 0
426 -423 17 0
-426 423 17 0
-426 -423 -17 0
425 20 -18 0
425 -20 18 0
-425 20 18 0
-425 -20 -18 0
-427 426 0
-427 16 0
-427 15 -18 0
-427 -15 18 0
427 -426 15 18 -16 0
427 -426 -15 -18 -16 0
429 426 -15 0
429 -426 15 0
-429 426 15 0
-429 -426 -15 0
428 18 -16 0
428 -18 16 0
-428 18 16 0
-428 -18 -16 0
-430 429 0
-430 14 0
-430 13 -16 0
-430 -13 16 0
430 -429 13 16 -14 0
430 -429 -13 -16 -14 0
432 429 -13 0
432 -429 13 0
-432 429 13 0
-432 -429 -13 0
431 16 -14 0
431 -16 14 0
-431 16 14 0
-431 -16 -14 0
-433 432 0
-433 12 0
-433 11 -14 0
-433 -11 14 0
433 -432 11 14 -12 0
433 -432 -11 -14 -12 0
435 432 -11 0
435 -432 11 0
-435 432 11 0
-435 -432 -11 0
434 14 -12 0
434 -14 12 0
-434 14 12 0
-434 -14 -12 0
-436 435 0
-436 10 0
-436 9 -12 0
-436 -9 12 0
436 -435 9 12 -10 0
436 -435 -9 -12 -10 0
438 435 -9 0
438 -435 9 0
-438 435 9 0
-438 -435 -9 0
437 12 -10 0
437 -12 10 0
-437 12 10 0
-437 -12 -10 0
-439 438 0
-439 8 0
-439 7 -10 0
-439 -7 10 0
439 -438 7 10 -8 0
439 -438 -7 -10 -8 0
441 438 -7 0
441 -438 7 0
-441 438 7 0
-441 -438 -7 0
440 10 -8 0
440 -10 8 0
-440 10 8 0
-440 -10 -8 0
-442 441 0
-442 6 0
-442 5 -8 0
-442 -5 8 0
442 -441 5 8 -6 0
442 -441 -5 -8 -6 0
444 441 -5 0
444 -441 5 0
-444 441 5 0
-444 -441 -5 0
443 8 -6 0
443 -8 6 0
-443 8 6 0
-443 -8 -6 0
-445 444 0
-445 4 0
-445 3 -6 0
-445 -3 6 0
445 -444 3 6 -4 0
445 -444 -3 -6 -4 0
447 444 -3 0
447 -444 3 0
-447 444 3 0
-447 -444 -3 0
446 6 -4 0
446 -6 4 0
-446 6 4 0
-446 -6 -4 0
-448 447 0
-448 2 0
-448 1 -4 0
-448 -1 4 0
448 -447 1 4 -2 0
448 -447 -1 -4 -2 0
450 447 -1 0
450 -447 1 0
-450 447 1 0
-450 -447 -1 0
449 4 -2 0
449 -4 2 0
-449 4 2 0
-449 -4 -2 0
-450 0
-447 0
-449 0
-444 0
-446 0
-441 0
-443 0
-438 0
-440 0
-435 0
-437 0
-432 0
-434 0
-429 0
-431 0
-426 0
-428 0
-423 0
-425 0
-420 0
-422 0
-417 0
-419 0
-414 0
-416 0
-411 0
-413 0
-408 0
-410 0
-405 0
-407 0
-402 0
-404 0
-399 0
-401 0
-396 0
-398 0
-393 0
-395 0
-390 0
-392 0
-387 0
-389 0
-384 0
-386 0
-381 0
-383 0
-378 0
-380 0
-375 0
-377 0
-372 0
-374 0
-369 0
-371 0
-366 0
-368 0
-363 0
-365 0
-360 0
-362 0
-357 0
-359 0
-354 0
-356 0
-351 0
-353 0
-348 0
-350 0
-345 0
-347 0
-342 0
-344 0
-339 0
-341 0
-336 0
-338 0
-333 0
-335 0
-330 0
-332 0
-327 0
-329 0
-324 0
-326 0
-321 0
-323 0
-318 0
-320 0
-315 0
-317 0
-312 0
-314 0
-309 0
-311 0
-306 0
-308 0
-303 0
-305 0
-300 0
-302 0
-297 0
-299 0
-294 0
-296 0
-291 0
-293 0
-288 0
-290 0
-285 0
-287 0
-282 0
-284 0
-279 0
-281 0
-276 0
-278 0
-273 0
-275 0
-270 0
-272 0
-267 0
-269 0
-264 0
-266 0
-261 0
-263 0
-258 0
-260 0
-255 0
-257 0
-252 0
-254 0
-249 0
-251 0
-246 0
-248 0
-243 0
-245 0
-240 0
-242 0
-237 0
-239 0
-234 0
-236 0
-231 0
-233 0
-228 0
-230 0
-225 0
-227 0
-222 0
-224 0
-219 0
-221 0
-216 0
-218 0
-213 0
-215 0
-210 0
-212 0
-207 0
-209 0
-204 0
-206 0
-201 0
-203 0
-198 0
-200 0
-195 0
-197 0
-192 0
-194 0
-189 0
-191 0
-182 0
-188 0
